NAME = SAfile180,
TOURSIZE = 180,
LENGTH = 2070,
42,138,46,40,147,15,61,162,79,81,112,65,100,143,146,127,126,107,35,84,130,140,5,9,148,59,161,151,117,49,99,119,71,11,63,38,50,4,32,113,57,142,98,179,166,106,19,17,68,97,156,2,18,136,90,167,75,39,3,34,10,120,115,165,160,92,95,109,30,51,47,178,7,94,48,121,80,13,134,122,20,16,29,152,139,43,52,135,158,116,172,45,12,164,170,37,96,103,176,180,58,125,33,73,27,141,31,53,76,131,67,69,105,110,54,28,101,26,174,173,175,22,6,132,78,159,153,123,124,55,169,177,104,145,163,74,60,85,82,72,62,137,24,44,118,89,168,14,150,149,111,114,87,86,56,157,108,144,133,25,88,102,129,154,91,1,36,66,64,171,83,41,155,128,77,70,23,93,8,21